NAME /Users/henri/Research/solvers/instances/idol-instances/robust/collection/cbp_Subramanyam_et_al_2020/CapBud_N15_10/models/uncertain_technology_matrix/
ROWS
 N  OBJ
 L  capacity
 L  c_1635
 L  c_1636
 L  c_1637
 L  c_1638
 L  c_1639
 L  c_1640
 L  c_1641
 L  c_1642
 L  c_1643
 L  c_1644
 L  c_1645
 L  c_1646
 L  c_1647
 L  c_1648
 L  c_1649
COLUMNS
    MARKER    'MARKER'                 'INTORG'
    x_0        OBJ        5.31934
    x_0        c_1635     1
    x_0        capacity   1.06387
    x_1        OBJ        9.65071
    x_1        c_1636     1
    x_1        capacity   1.93014
    x_2        OBJ        7.11216
    x_2        c_1637     1
    x_2        capacity   1.42243
    x_3        OBJ        1.59434
    x_3        c_1638     1
    x_3        capacity   0.318867
    x_4        OBJ        9.91562
    x_4        c_1639     1
    x_4        capacity   1.98312
    x_5        OBJ        3.45406
    x_5        c_1640     1
    x_5        capacity   0.690811
    x_6        OBJ        5.8994
    x_6        c_1641     1
    x_6        capacity   1.17988
    x_7        OBJ        1.24612
    x_7        c_1642     1
    x_7        capacity   0.249223
    x_8        OBJ        7.10147
    x_8        c_1643     1
    x_8        capacity   1.42029
    x_9        OBJ        9.30319
    x_9        c_1644     1
    x_9        capacity   1.86064
    x_10       OBJ        3.00795
    x_10       c_1645     1
    x_10       capacity   0.60159
    x_11       OBJ        8.09505
    x_11       c_1646     1
    x_11       capacity   1.61901
    x_12       OBJ        9.7493
    x_12       c_1647     1
    x_12       capacity   1.94986
    x_13       OBJ        3.14838
    x_13       c_1648     1
    x_13       capacity   0.629676
    x_14       OBJ        1.51039
    x_14       c_1649     1
    x_14       capacity   0.302078
    y_0        OBJ        4.25547
    y_0        c_1635     1
    y_0        capacity   1.06387
    y_1        OBJ        7.72057
    y_1        c_1636     1
    y_1        capacity   1.93014
    y_2        OBJ        5.68973
    y_2        c_1637     1
    y_2        capacity   1.42243
    y_3        OBJ        1.27547
    y_3        c_1638     1
    y_3        capacity   0.318867
    y_4        OBJ        7.9325
    y_4        c_1639     1
    y_4        capacity   1.98312
    y_5        OBJ        2.76325
    y_5        c_1640     1
    y_5        capacity   0.690811
    y_6        OBJ        4.71952
    y_6        c_1641     1
    y_6        capacity   1.17988
    y_7        OBJ        0.996894
    y_7        c_1642     1
    y_7        capacity   0.249223
    y_8        OBJ        5.68118
    y_8        c_1643     1
    y_8        capacity   1.42029
    y_9        OBJ        7.44255
    y_9        c_1644     1
    y_9        capacity   1.86064
    y_10       OBJ        2.40636
    y_10       c_1645     1
    y_10       capacity   0.60159
    y_11       OBJ        6.47604
    y_11       c_1646     1
    y_11       capacity   1.61901
    y_12       OBJ        7.79944
    y_12       c_1647     1
    y_12       capacity   1.94986
    y_13       OBJ        2.5187
    y_13       c_1648     1
    y_13       capacity   0.629676
    y_14       OBJ        1.20831
    y_14       c_1649     1
    y_14       capacity   0.302078
    MARKER    'MARKER'                 'INTEND'
RHS
    RHS       capacity   43.0537
    RHS       c_1635     1
    RHS       c_1636     1
    RHS       c_1637     1
    RHS       c_1638     1
    RHS       c_1639     1
    RHS       c_1640     1
    RHS       c_1641     1
    RHS       c_1642     1
    RHS       c_1643     1
    RHS       c_1644     1
    RHS       c_1645     1
    RHS       c_1646     1
    RHS       c_1647     1
    RHS       c_1648     1
    RHS       c_1649     1
BOUNDS
 LI BND       x_0        0
 UI BND       x_0        1
 LI BND       x_1        0
 UI BND       x_1        1
 LI BND       x_2        0
 UI BND       x_2        1
 LI BND       x_3        0
 UI BND       x_3        1
 LI BND       x_4        0
 UI BND       x_4        1
 LI BND       x_5        0
 UI BND       x_5        1
 LI BND       x_6        0
 UI BND       x_6        1
 LI BND       x_7        0
 UI BND       x_7        1
 LI BND       x_8        0
 UI BND       x_8        1
 LI BND       x_9        0
 UI BND       x_9        1
 LI BND       x_10       0
 UI BND       x_10       1
 LI BND       x_11       0
 UI BND       x_11       1
 LI BND       x_12       0
 UI BND       x_12       1
 LI BND       x_13       0
 UI BND       x_13       1
 LI BND       x_14       0
 UI BND       x_14       1
 LI BND       y_0        0
 UI BND       y_0        1
 LI BND       y_1        0
 UI BND       y_1        1
 LI BND       y_2        0
 UI BND       y_2        1
 LI BND       y_3        0
 UI BND       y_3        1
 LI BND       y_4        0
 UI BND       y_4        1
 LI BND       y_5        0
 UI BND       y_5        1
 LI BND       y_6        0
 UI BND       y_6        1
 LI BND       y_7        0
 UI BND       y_7        1
 LI BND       y_8        0
 UI BND       y_8        1
 LI BND       y_9        0
 UI BND       y_9        1
 LI BND       y_10       0
 UI BND       y_10       1
 LI BND       y_11       0
 UI BND       y_11       1
 LI BND       y_12       0
 UI BND       y_12       1
 LI BND       y_13       0
 UI BND       y_13       1
 LI BND       y_14       0
 UI BND       y_14       1
ENDATA
